(set-info :status unsat)
(set-info :source | KeYmaera example: intersection-example-onelane.proof, node 41730 For more info see: @see "Sarah M.0 Loos and André Platzer.0 Safe intersections: At the crossing of hybrid systems and verification.0 In Kyongsu Yi, editor, 14th International IEEE Conference on Intelligent Transportation Systems, ITSC 2011, Washington, DC, USA, Proceedings.0 2011."|)
(set-info :smt-lib-version 2.0)
(declare-fun t171uscore0dollarskuscore2 () Real)
(declare-fun xI () Real)
(declare-fun A () Real)
(declare-fun B () Real)
(declare-fun xuscore4dollarskuscore43 () Real)
(declare-fun I1uscore4dollarskuscore46 () Real)
(declare-fun I1 () Real)
(declare-fun v () Real)
(declare-fun V () Real)
(declare-fun ts93uscore2 () Real)
(declare-fun ep () Real)
(declare-fun vuscore4dollarskuscore48 () Real)
(declare-fun x () Real)
(assert (not (exists ((ts93uscore2 Real)) (=> (and (and (and (and (and (and (and (and (and (and (and (and (and (and (= I1uscore4dollarskuscore46 2.0) (=> (and (<= 0.0 ts93uscore2) (<= ts93uscore2 t171uscore0dollarskuscore2)) (and (and (>= (+ (* A ts93uscore2) vuscore4dollarskuscore48) 0.0) (<= (+ (* A ts93uscore2) vuscore4dollarskuscore48) V)) (<= ts93uscore2 ep)))) (>= t171uscore0dollarskuscore2 0.0)) (= xI xuscore4dollarskuscore43)) (>= vuscore4dollarskuscore48 0.0)) (<= vuscore4dollarskuscore48 V)) (< xI xuscore4dollarskuscore43)) (= I1 2.0)) (> xI (+ x (/ (* v v) (* 2.0 B))))) (> B 0.0)) (>= v 0.0)) (<= v V)) (>= A 0.0)) (> V 0.0)) (> ep 0.0)) (or (< xI (* (/ 1.0 2.0) (+ (+ (* A (* t171uscore0dollarskuscore2 t171uscore0dollarskuscore2)) (* (* 2.0 t171uscore0dollarskuscore2) vuscore4dollarskuscore48)) (* 2.0 xuscore4dollarskuscore43)))) (> xI (+ (* (/ 1.0 2.0) (+ (+ (* A (* t171uscore0dollarskuscore2 t171uscore0dollarskuscore2)) (* (* 2.0 t171uscore0dollarskuscore2) vuscore4dollarskuscore48)) (* 2.0 xuscore4dollarskuscore43))) (/ (* (+ (* A t171uscore0dollarskuscore2) vuscore4dollarskuscore48) (+ (* A t171uscore0dollarskuscore2) vuscore4dollarskuscore48)) (* 2.0 B)))))))))
(check-sat)

